NAME: random96
TYPE: TSP
DIMENSION: 96
EDGE_WEIGHT_TYPE: EXPLICIT
EDGE_WEIGHT_FORMAT: FULL_MATRIX
EDGE_WEIGHT_SECTION
0 60 127 37 127 127 127 127 54 53 44 127 127 32 8 127 127 127 127 127 30 127 127 127 127 127 5 65 127 127 22 127 8 127 8 27 17 127 127 14 19 127 127 127 127 127 6 62 127 23 127 72 127 127 127 22 127 127 127 24 127 127 52 127 35 13 30 127 21 80 25 127 34 127 127 40 12 80 127 127 127 28 127 127 127 127 127 42 127 34 127 127 127 127 40 26
60 0 127 127 127 127 127 127 127 9 17 24 127 28 64 127 127 27 127 127 127 127 22 59 127 18 127 10 127 127 127 127 63 127 127 127 127 127 127 46 127 127 127 127 127 127 127 8 127 127 127 14 127 127 72 127 127 127 127 127 127 127 12 127 26 127 127 127 127 127 127 127 127 127 127 20 127 25 127 33 17 127 127 127 34 22 127 127 127 127 127 33 127 127 22 127
127 127 0 127 16 127 27 127 127 127 127 127 17 127 127 127 127 127 20 26 127 127 127 34 127 127 127 127 127 127 127 15 127 34 127 127 127 22 67 127 127 43 127 25 127 127 127 127 46 127 18 127 34 31 27 127 39 13 127 127 39 32 127 21 127 127 127 34 127 127 127 23 127 127 41 127 127 127 21 127 127 127 30 28 127 127 127 127 22 127 28 127 39 6 127 127
37 127 127 0 127 127 127 47 17 127 127 127 127 127 43 38 20 127 127 127 11 127 127 127 127 127 127 127 35 127 26 127 44 127 32 38 20 127 54 127 19 127 34 127 49 31 127 127 127 14 127 127 127 127 127 17 39 127 35 127 127 127 127 127 127 24 9 127 127 43 28 127 26 127 39 127 25 127 127 127 127 127 127 127 127 127 127 14 127 5 127 127 127 127 127 127
127 127 16 127 0 127 27 29 65 127 127 127 26 127 127 127 127 127 35 18 82 127 127 127 127 127 127 127 127 127 127 21 127 25 127 127 127 127 53 127 127 127 40 38 31 127 127 127 127 127 29 127 28 20 42 127 127 3 127 127 127 20 127 29 127 127 127 127 127 56 127 38 127 127 127 127 127 127 6 127 127 127 127 127 127 127 127 127 37 127 127 127 26 20 127 127
127 127 127 127 127 0 18 15 31 127 127 127 127 127 127 127 16 127 127 17 127 3 127 127 127 127 127 127 3 7 127 30 127 12 127 127 127 127 127 127 127 127 9 127 20 7 127 127 127 127 127 127 8 17 127 127 16 35 6 127 10 19 127 33 127 127 127 127 127 34 127 127 30 2 22 127 127 127 30 127 127 127 127 127 127 127 127 23 127 127 127 127 127 127 127 127
127 127 27 127 27 18 0 26 48 127 127 127 44 127 127 26 29 127 31 14 127 19 127 127 40 127 127 127 21 19 46 13 127 19 127 44 127 30 54 127 127 29 27 127 127 19 127 127 25 127 127 127 14 21 127 49 12 26 24 127 12 23 127 15 127 127 127 40 127 127 43 127 33 19 16 127 127 127 26 40 127 127 26 127 127 127 27 36 39 127 40 34 29 33 127 127
127 127 127 47 29 15 26 0 37 127 127 127 55 127 127 127 30 127 127 15 58 12 127 127 127 127 127 127 13 9 127 34 127 7 127 127 127 127 29 127 127 127 13 127 6 22 127 127 127 127 127 127 13 9 127 127 30 30 12 127 24 9 127 127 127 127 127 127 127 28 127 127 45 13 36 127 127 127 23 127 127 127 127 127 127 127 127 36 127 127 127 127 5 127 127 127
54 127 127 17 65 31 48 37 0 127 127 127 89 127 61 46 22 127 127 127 27 32 127 127 127 127 127 127 29 35 41 127 61 40 49 52 37 127 37 127 36 127 25 127 37 30 127 127 53 31 127 127 127 127 127 34 41 127 28 127 37 45 127 63 127 41 25 127 127 26 42 127 37 31 44 127 42 127 59 127 127 127 127 127 127 127 127 20 127 21 127 127 41 127 127 127
53 9 127 127 127 127 127 127 127 0 14 15 127 22 58 127 127 23 127 127 127 127 16 127 127 20 127 18 127 127 127 127 57 127 127 34 127 127 127 40 127 127 127 127 127 127 127 15 127 127 127 19 127 127 127 127 127 127 127 127 127 127 13 127 19 127 127 127 127 127 127 127 127 127 127 14 127 28 127 29 12 29 127 127 32 14 35 127 127 127 127 26 127 127 17 31
44 17 127 127 127 127 127 127 127 14 0 22 127 13 47 127 127 37 127 127 127 127 29 127 127 34 127 21 127 127 127 127 46 127 127 127 127 127 127 30 127 127 127 127 127 127 40 18 127 127 127 31 127 127 127 127 127 127 127 32 127 127 8 127 14 127 127 127 36 127 127 127 127 127 127 6 127 42 127 127 25 26 127 127 127 21 127 127 127 127 127 127 127 127 5 28
127 24 127 127 127 127 127 127 127 15 22 0 127 21 127 26 50 21 127 127 127 127 11 127 40 29 127 127 127 127 34 127 127 127 40 21 127 127 127 33 127 20 127 127 127 127 40 127 22 127 127 30 127 127 127 44 127 127 127 24 127 127 25 43 15 127 127 127 28 127 31 127 33 127 33 18 127 35 127 24 12 19 34 127 31 1 20 50 127 127 127 15 127 127 22 21
127 127 17 127 26 127 44 55 89 127 127 127 0 127 127 127 127 127 28 42 103 127 127 36 127 127 127 127 127 127 127 31 127 50 127 127 127 30 79 127 127 127 64 13 58 127 127 127 127 127 4 127 51 45 23 127 127 25 127 127 127 46 127 36 127 127 127 127 127 82 127 22 127 127 127 127 127 73 33 127 127 127 127 30 127 127 127 127 23 127 32 127 53 11 127 127
32 28 127 127 127 127 127 127 127 22 13 21 127 0 36 37 127 127 127 127 127 127 31 127 127 127 32 33 127 127 31 127 35 127 29 21 127 127 127 18 127 127 127 127 127 127 27 30 127 127 127 127 127 127 127 127 127 127 127 20 127 127 21 127 6 40 127 127 24 127 30 127 38 127 127 9 39 127 127 127 30 15 127 127 127 20 36 127 127 127 127 35 127 127 8 16
8 64 127 43 127 127 127 127 61 58 47 127 127 36 0 127 55 127 127 127 35 127 127 127 127 127 13 67 127 127 127 127 1 127 16 127 23 127 97 19 25 127 73 127 89 127 14 65 127 29 127 77 127 127 127 30 127 127 127 31 127 127 55 127 127 19 36 127 29 86 127 127 127 127 127 44 19 85 127 127 127 127 127 127 127 127 127 50 127 41 127 127 127 127 43 33
127 127 127 38 127 127 26 127 46 127 127 26 127 37 127 0 25 36 45 38 127 127 31 127 127 127 127 127 127 127 23 35 127 127 36 19 38 42 127 37 127 20 37 127 127 24 38 127 8 39 127 127 33 127 127 29 16 127 127 22 21 127 127 30 32 127 127 127 23 127 19 127 13 127 10 127 39 127 127 34 127 23 31 127 127 27 9 27 127 34 127 22 127 127 127 23
127 127 127 20 127 16 29 30 22 127 127 50 127 127 55 25 0 127 59 33 31 19 127 127 127 127 127 127 17 23 28 42 127 28 41 35 34 58 46 127 35 43 18 127 33 11 127 127 32 30 127 127 24 127 127 26 20 127 18 36 17 35 127 43 127 127 28 127 34 38 27 127 18 18 22 127 37 127 127 127 127 41 49 127 127 127 33 7 127 18 127 127 35 127 127 40
127 27 127 127 127 127 127 127 127 23 37 21 127 127 127 36 127 0 127 127 127 127 10 33 22 17 127 36 127 127 127 127 72 127 127 41 127 33 127 127 127 18 127 58 127 127 127 34 29 127 127 22 127 127 46 127 127 127 127 127 127 127 36 36 35 127 127 24 127 127 127 43 127 127 127 35 127 19 127 7 12 39 24 35 10 21 28 127 127 127 33 15 127 127 127 127
127 127 20 127 35 127 31 127 127 127 127 127 28 127 127 45 59 127 0 39 127 127 127 15 16 127 127 127 127 127 127 20 127 47 127 127 127 3 82 127 127 31 127 25 127 127 127 127 38 127 26 127 44 45 17 127 40 32 127 127 43 127 127 17 127 127 127 14 127 127 127 11 57 127 39 127 127 47 39 29 127 127 15 10 30 127 39 127 8 127 9 35 127 20 127 127
127 127 26 127 18 17 14 15 127 127 127 127 42 127 127 38 33 127 39 0 127 15 127 127 127 127 127 127 18 12 127 19 127 8 127 127 127 39 43 127 127 43 22 51 20 22 127 127 39 127 44 127 9 7 127 127 23 18 20 127 19 9 127 25 127 127 127 127 127 43 127 46 43 16 28 127 127 127 14 127 127 127 38 127 127 127 127 127 44 127 48 127 16 32 127 127
30 127 127 11 82 127 127 58 27 127 127 127 103 127 35 127 31 127 127 127 0 127 127 127 127 127 26 88 47 127 26 127 36 127 27 127 13 127 64 40 11 127 45 127 60 42 30 127 127 8 127 127 127 127 127 17 48 127 47 127 127 127 76 127 127 17 3 127 127 53 127 127 31 127 47 127 18 127 77 127 127 127 127 127 127 127 127 24 127 13 127 127 63 127 64 127
127 127 127 127 127 3 19 12 32 127 127 127 127 127 127 127 19 127 127 15 127 0 127 127 127 127 127 127 3 4 127 30 127 9 127 127 127 127 127 127 127 127 8 127 17 10 127 127 127 127 127 127 6 15 127 127 19 33 5 127 13 16 127 34 127 127 127 127 127 33 127 127 127 2 25 127 127 127 28 127 127 127 127 127 127 127 127 127 127 127 127 127 16 127 127 127
127 22 127 127 127 127 127 127 127 16 29 11 127 31 127 31 127 10 127 127 127 127 0 42 30 20 127 32 127 127 127 127 127 127 127 32 127 127 127 127 127 17 127 127 127 127 127 30 25 127 127 23 127 127 55 127 127 127 127 35 127 127 29 39 25 127 127 127 39 127 41 127 41 127 127 26 127 25 127 14 5 30 28 127 19 11 23 127 127 127 127 12 127 127 30 32
127 59 34 127 127 127 127 127 127 127 127 127 36 127 127 127 127 33 15 127 127 127 42 0 12 43 127 67 127 127 127 35 101 127 127 127 127 15 127 127 127 37 127 26 127 127 127 66 127 127 33 50 127 127 14 127 127 127 127 127 127 127 69 31 127 127 127 10 127 127 127 13 127 127 127 127 127 39 127 28 45 127 24 6 25 127 127 127 13 127 6 39 127 32 127 127
127 127 127 127 127 127 40 127 127 127 127 40 127 127 127 127 127 22 16 127 127 127 30 12 0 34 127 57 127 127 127 32 127 127 127 127 127 14 127 127 127 25 127 36 127 127 127 127 36 127 127 41 127 127 24 127 127 127 127 127 127 127 127 25 127 127 127 2 127 127 127 21 127 127 42 127 127 31 127 16 33 127 15 14 15 127 36 127 20 127 12 27 127 127 127 127
127 18 127 127 127 127 127 127 127 20 34 29 127 127 127 127 127 17 127 127 127 127 20 43 34 0 127 24 127 127 127 127 77 127 127 127 127 127 127 127 127 34 127 70 127 127 127 23 127 127 127 6 127 127 57 127 127 127 127 127 127 127 29 127 39 127 127 37 127 127 127 55 127 127 127 35 127 8 127 23 17 127 40 47 19 28 43 127 127 127 46 30 127 127 127 127
5 127 127 127 127 127 127 127 127 127 127 127 127 32 13 127 127 127 127 127 26 127 127 127 127 127 0 66 127 127 17 127 13 127 4 25 13 127 127 15 15 127 127 127 127 127 5 127 127 19 127 127 127 127 127 17 127 127 127 21 127 127 53 127 127 9 127 127 18 127 21 127 30 127 127 127 8 127 127 127 127 127 127 127 127 127 127 37 127 29 127 127 127 127 40 24
65 10 127 127 127 127 127 127 127 18 21 127 127 33 67 127 127 36 127 127 88 127 32 67 57 24 66 0 127 127 127 127 66 127 127 127 127 127 127 51 79 127 127 93 127 127 61 3 127 127 127 18 127 127 81 127 127 127 127 51 127 127 13 127 127 73 127 60 55 127 127 79 127 127 127 25 72 31 127 43 28 127 127 71 42 32 127 127 127 127 69 44 127 127 25 47
127 127 127 35 127 3 21 13 29 127 127 127 127 127 127 127 17 127 127 18 47 3 127 127 127 127 127 127 0 6 127 127 127 12 127 127 127 127 36 127 127 127 6 127 18 9 127 127 127 127 127 127 9 127 127 127 19 127 3 127 13 18 127 127 127 127 127 127 127 31 127 127 32 2 25 127 127 127 127 127 127 127 127 127 127 127 127 23 127 127 127 127 18 127 127 127
127 127 127 127 127 7 19 9 35 127 127 127 127 127 127 127 23 127 127 12 127 4 127 127 127 127 127 127 6 0 127 29 127 5 127 127 127 127 36 127 127 127 10 127 14 14 127 127 127 127 127 127 5 11 127 127 21 30 7 127 15 12 127 33 127 127 127 127 127 33 127 127 127 5 27 127 127 127 24 127 127 127 127 127 127 127 127 127 127 127 127 127 13 127 127 127
22 127 127 26 127 127 46 127 41 127 127 34 127 31 127 23 28 127 127 127 26 127 127 127 127 127 17 127 127 127 0 127 30 127 14 13 17 127 127 20 20 127 46 127 127 35 16 127 29 19 127 127 127 127 127 10 34 127 127 11 127 127 127 53 127 17 25 127 7 127 4 127 13 127 30 127 17 127 127 127 127 17 127 127 127 127 29 24 127 22 127 127 127 127 39 15
127 127 15 127 21 30 13 34 127 127 127 127 31 127 127 35 42 127 20 19 127 30 127 35 32 127 127 127 127 29 127 0 127 27 127 127 127 20 62 127 127 31 127 37 127 32 127 127 32 127 32 127 24 26 127 127 24 19 127 127 25 28 127 8 127 127 127 31 127 127 127 29 45 127 27 127 127 127 23 38 127 127 21 30 127 127 33 127 26 127 29 36 35 20 127 127
8 63 127 44 127 127 127 127 61 57 46 127 127 35 1 127 127 72 127 127 36 127 127 101 127 77 13 66 127 127 30 127 0 127 16 34 24 127 127 18 25 127 127 127 127 127 14 64 127 30 127 76 127 127 111 30 127 127 127 31 127 127 54 127 39 20 37 127 28 87 33 127 127 127 127 43 19 84 127 127 63 34 127 127 82 52 127 127 127 127 127 127 127 127 42 32
127 127 34 127 25 12 19 7 40 127 127 127 50 127 127 127 28 127 47 8 127 9 127 127 127 127 127 127 12 5 127 27 127 0 127 127 127 127 36 127 127 127 15 127 13 19 127 127 127 127 127 127 6 6 127 127 24 25 12 127 18 7 127 32 127 127 127 127 127 35 127 127 127 10 30 127 127 127 19 127 127 127 127 127 127 127 127 127 127 127 127 127 10 40 127 127
8 127 127 32 127 127 127 127 49 127 127 40 127 29 16 36 41 127 127 127 27 127 127 127 127 127 4 127 127 127 14 127 16 127 0 21 14 127 127 12 17 127 127 127 127 127 3 127 127 20 127 127 127 127 127 16 127 127 127 17 127 127 127 127 127 11 27 127 14 127 17 127 27 127 44 127 10 127 127 127 127 22 127 127 127 127 41 35 127 29 127 127 127 127 37 20
27 127 127 38 127 127 44 127 52 34 127 21 127 21 127 19 35 41 127 127 127 127 32 127 127 127 25 127 127 127 13 127 34 127 21 0 29 127 127 19 127 31 51 127 127 39 21 127 22 32 127 127 127 127 127 23 34 127 127 4 127 127 127 48 18 127 127 127 7 127 10 127 17 127 28 26 28 127 127 42 34 6 45 127 127 22 21 33 127 34 127 29 127 127 28 5
17 127 127 20 127 127 127 127 37 127 127 127 127 127 23 38 34 127 127 127 13 127 127 127 127 127 13 127 127 127 17 127 24 127 14 29 0 127 127 26 3 127 127 127 127 127 17 127 127 6 127 127 127 127 127 10 127 127 127 127 127 127 127 127 127 4 14 127 22 63 21 127 26 127 44 127 5 127 127 127 127 127 127 127 127 127 127 27 127 18 127 127 127 127 127 127
127 127 22 127 127 127 30 127 127 127 127 127 30 127 127 42 58 33 3 39 127 127 127 15 14 127 127 127 127 127 127 20 127 127 127 127 127 0 127 127 127 28 127 127 127 127 127 127 36 127 29 127 43 127 19 127 38 34 127 127 41 127 127 15 127 127 127 12 127 127 127 14 55 127 37 127 127 45 127 26 127 127 13 11 28 127 36 127 11 127 10 32 127 22 127 127
127 127 67 54 53 127 54 29 37 127 127 127 79 127 97 127 46 127 82 43 64 127 127 127 127 127 127 127 36 36 127 62 127 36 127 127 127 127 0 127 73 127 31 91 23 44 127 127 127 68 82 127 40 37 94 127 127 55 33 127 127 35 127 127 127 127 62 127 127 12 127 89 127 127 127 127 127 127 46 127 127 127 127 127 127 127 127 50 87 127 127 127 28 72 127 127
14 46 127 127 127 127 127 127 127 40 30 33 127 18 19 37 127 127 127 127 40 127 127 127 127 127 15 51 127 127 20 127 18 127 12 19 26 127 127 0 29 127 127 127 127 127 10 48 127 127 127 58 127 127 127 27 127 127 127 16 127 127 38 127 21 23 127 127 15 127 22 127 32 127 127 26 22 67 127 127 127 17 127 127 127 34 40 127 127 127 127 127 127 127 26 15
19 127 127 19 127 127 127 127 36 127 127 127 127 127 25 127 35 127 127 127 11 127 127 127 127 127 15 79 127 127 20 127 25 127 17 127 3 127 73 29 0 127 51 127 67 127 19 127 127 5 127 127 127 127 127 12 127 127 127 127 127 127 66 127 127 6 12 127 127 62 127 127 29 127 127 127 7 127 127 127 127 127 127 127 127 127 127 28 127 18 127 127 127 127 54 127
127 127 43 127 127 127 29 127 127 127 127 20 127 127 127 20 43 18 31 43 127 127 17 37 25 34 127 127 127 127 127 31 127 127 127 31 127 28 127 127 127 0 127 127 127 127 127 127 12 127 127 127 42 127 127 127 27 50 127 34 33 127 127 23 33 127 127 27 37 127 36 127 32 127 22 127 127 36 127 15 21 31 15 127 23 21 12 127 39 127 34 5 127 47 127 33
127 127 127 34 40 9 27 13 25 127 127 127 64 127 73 37 18 127 127 22 45 8 127 127 127 127 127 127 6 10 46 127 127 15 127 51 127 127 31 127 51 127 0 127 16 14 127 127 42 46 127 127 14 20 127 43 25 127 3 127 19 21 127 42 127 127 42 127 127 25 44 127 35 8 30 127 127 127 34 127 127 127 127 127 127 127 127 23 127 34 127 127 18 127 127 127
127 127 25 127 38 127 127 127 127 127 127 127 13 127 127 127 127 58 25 51 127 127 127 26 36 70 127 93 127 127 127 37 127 127 127 127 127 127 91 127 127 127 127 0 68 127 127 127 127 127 10 76 127 127 13 127 127 36 127 127 127 127 127 127 127 127 127 34 127 93 127 15 127 127 127 127 127 65 44 127 127 127 127 23 51 127 127 127 17 127 25 127 63 19 127 127
127 127 127 49 31 20 127 6 37 127 127 127 58 127 89 127 33 127 127 20 60 17 127 127 127 127 127 127 18 14 127 127 127 13 127 127 127 127 23 127 67 127 16 68 0 27 127 127 127 62 60 127 18 14 127 127 35 33 16 127 29 12 127 127 127 127 57 127 127 25 127 127 50 18 41 127 127 127 25 127 127 127 127 127 127 127 127 39 127 127 127 127 5 50 127 127
127 127 127 31 127 7 19 22 30 127 127 127 127 127 127 24 11 127 127 22 42 10 127 127 127 127 127 127 9 14 35 32 127 19 127 39 127 127 44 127 127 127 14 127 27 0 127 127 28 127 127 127 13 127 127 35 12 127 12 127 7 26 127 33 127 127 127 127 127 38 33 127 23 9 17 127 127 127 127 127 127 127 127 127 127 127 127 18 127 29 127 127 27 127 127 127
6 127 127 127 127 127 127 127 127 127 40 40 127 27 14 38 127 127 127 127 30 127 127 127 127 127 5 61 127 127 16 127 14 127 3 21 17 127 127 10 19 127 127 127 127 127 0 127 127 23 127 127 127 127 127 19 127 127 127 18 127 127 48 127 29 14 127 127 15 127 19 127 29 127 127 36 13 127 127 127 127 22 127 127 127 127 42 38 127 32 127 127 127 127 35 19
62 8 127 127 127 127 127 127 127 15 18 127 127 30 65 127 127 34 127 127 127 127 30 66 127 23 127 3 127 127 127 127 64 127 127 127 127 127 127 48 127 127 127 127 127 127 127 0 127 127 127 18 127 127 80 127 127 127 127 127 127 127 10 127 127 127 127 127 127 127 127 127 127 127 127 22 127 31 127 127 25 127 127 127 41 29 127 127 127 127 127 127 127 127 22 127
127 127 46 127 127 127 25 127 53 127 127 22 127 127 127 8 32 29 38 39 127 127 25 127 36 127 127 127 127 127 29 32 127 127 127 22 127 36 127 127 127 12 42 127 127 28 127 127 0 127 127 127 35 127 127 36 18 49 127 26 24 127 127 26 31 127 127 38 28 127 25 127 20 127 12 127 127 127 127 27 127 25 24 127 36 23 2 34 47 127 43 14 127 50 127 26
23 127 127 14 127 127 127 127 31 127 127 127 127 127 29 39 30 127 127 127 8 127 127 127 127 127 19 127 127 127 19 127 30 127 20 32 6 127 68 127 5 127 46 127 62 127 23 127 127 0 127 127 127 127 127 10 127 127 127 127 127 127 127 127 127 10 8 127 25 57 23 127 26 127 43 127 11 127 127 127 127 127 127 127 127 127 127 23 127 13 127 127 127 127 127 127
127 127 18 127 29 127 127 127 127 127 127 127 4 127 127 127 127 127 26 44 127 127 127 33 127 127 127 127 127 127 127 32 127 127 127 127 127 29 82 127 127 127 127 10 60 127 127 127 127 127 0 127 127 127 20 127 127 27 127 127 127 127 127 36 127 127 127 127 127 85 127 20 127 127 127 127 127 71 35 127 127 127 127 28 127 127 127 127 21 127 29 127 55 12 127 127
72 14 127 127 127 127 127 127 127 19 31 30 127 127 77 127 127 22 127 127 127 127 23 50 41 6 127 18 127 127 127 127 76 127 127 127 127 127 127 58 127 127 127 76 127 127 127 18 127 127 127 0 127 127 64 127 127 127 127 127 127 127 25 127 38 127 127 43 127 127 127 62 127 127 127 33 127 13 127 29 19 127 127 54 26 29 127 127 127 127 52 34 127 127 35 127
127 127 34 127 28 8 14 13 127 127 127 127 51 127 127 33 24 127 44 9 127 6 127 127 127 127 127 127 9 5 127 24 127 6 127 127 127 43 40 127 127 42 14 127 18 13 127 127 35 127 127 127 0 11 127 127 17 28 11 127 12 13 127 29 127 127 127 127 127 127 127 127 35 7 23 127 127 127 23 127 127 127 40 127 127 127 127 127 127 127 127 127 16 40 127 127
127 127 31 127 20 17 21 9 127 127 127 127 45 127 127 127 127 127 45 7 127 15 127 127 127 127 127 127 127 11 127 26 127 6 127 127 127 127 37 127 127 127 20 127 14 127 127 127 127 127 127 127 11 0 127 127 28 21 18 127 23 2 127 32 127 127 127 127 127 38 127 127 127 127 34 127 127 127 14 127 127 127 127 127 127 127 127 127 127 127 127 127 9 36 127 127
127 72 27 127 42 127 127 127 127 127 127 127 23 127 127 127 127 46 17 127 127 127 55 14 24 57 127 81 127 127 127 127 111 127 127 127 127 19 94 127 127 127 127 13 127 127 127 80 127 127 20 64 127 127 0 127 127 40 127 127 127 127 82 127 127 127 127 22 127 127 127 6 127 127 127 127 127 53 127 40 58 127 31 11 39 127 127 127 8 127 13 49 127 23 127 127
22 127 127 17 127 127 49 127 34 127 127 44 127 127 30 29 26 127 127 127 17 127 127 127 127 127 17 127 127 127 10 127 30 127 16 23 10 127 127 27 12 127 43 127 127 35 19 127 36 10 127 127 127 127 127 0 37 127 127 21 127 127 127 58 127 12 15 127 17 58 13 127 17 127 35 127 12 127 127 127 127 27 127 127 127 127 37 20 127 13 127 127 127 127 127 25
127 127 39 39 127 16 12 30 41 127 127 127 127 127 127 16 20 127 40 23 48 19 127 127 127 127 127 127 19 21 34 24 127 24 127 34 127 38 127 127 127 27 25 127 35 12 127 127 18 127 127 127 17 28 127 37 0 37 22 127 6 127 127 23 127 127 127 127 127 50 31 127 21 18 6 127 127 127 36 127 127 127 30 127 127 127 20 25 127 36 127 127 127 127 127 127
127 127 13 127 3 35 26 30 127 127 127 127 25 127 127 127 127 127 32 18 127 33 127 127 127 127 127 127 127 30 127 19 127 25 127 127 127 34 55 127 127 50 127 36 33 127 127 127 49 127 27 127 28 21 40 127 37 0 127 127 35 21 127 27 127 127 127 127 127 58 127 36 127 127 42 127 127 127 8 127 127 127 39 41 127 127 127 127 35 127 41 127 28 17 127 127
127 127 127 35 127 6 24 12 28 127 127 127 127 127 127 127 18 127 127 20 47 5 127 127 127 127 127 127 3 7 127 127 127 12 127 127 127 127 33 127 127 127 3 127 16 12 127 127 127 127 127 127 11 18 127 127 22 127 0 127 16 19 127 127 127 127 127 127 127 28 127 127 34 5 28 127 127 127 32 127 127 127 127 127 127 127 127 24 127 127 127 127 17 127 127 127
24 127 127 127 127 127 127 127 127 127 32 24 127 20 31 22 36 127 127 127 127 127 35 127 127 127 21 51 127 127 11 127 31 127 17 4 127 127 127 16 127 34 127 127 127 127 18 127 26 127 127 127 127 127 127 21 127 127 127 0 127 127 39 127 18 25 127 127 4 127 10 127 18 127 31 26 25 127 127 127 127 6 127 127 127 25 25 34 127 127 127 32 127 127 28 4
127 127 39 127 127 10 12 24 37 127 127 127 127 127 127 21 17 127 43 19 127 13 127 127 127 127 127 127 13 15 127 25 127 18 127 127 127 41 127 127 127 33 19 127 29 7 127 127 24 127 127 127 12 23 127 127 6 35 16 127 0 25 127 26 127 127 127 127 127 44 127 127 24 12 12 127 127 127 33 127 127 127 35 127 127 127 127 24 127 127 127 127 127 127 127 127
127 127 32 127 20 19 23 9 45 127 127 127 46 127 127 127 35 127 127 9 127 16 127 127 127 127 127 127 18 12 127 28 127 7 127 127 127 127 35 127 127 127 21 127 12 26 127 127 127 127 127 127 13 2 127 127 127 21 19 127 25 0 127 127 127 127 127 127 127 37 127 127 127 127 127 127 127 127 14 127 127 127 127 127 127 127 127 127 127 127 127 127 7 38 127 127
52 12 127 127 127 127 127 127 127 13 8 25 127 21 55 127 127 36 127 127 76 127 29 69 127 29 53 13 127 127 127 127 54 127 127 127 127 127 127 38 66 127 127 127 127 127 48 10 127 127 127 25 127 127 82 127 127 127 127 39 127 127 0 127 21 61 127 127 43 127 127 127 127 127 127 13 60 37 127 127 25 33 127 127 44 24 127 127 127 127 127 127 127 127 13 35
127 127 21 127 29 33 15 127 63 127 127 43 36 127 127 30 43 36 17 25 127 34 39 31 25 127 127 127 127 33 53 8 127 32 127 48 127 15 127 127 127 23 42 127 127 33 127 127 26 127 36 127 29 32 127 58 23 27 127 127 26 127 127 0 127 127 127 25 127 127 49 27 42 127 24 127 127 127 31 30 127 127 13 26 35 127 27 48 24 127 25 28 127 25 127 127
35 26 127 127 127 127 127 127 127 19 14 15 127 6 127 32 127 35 127 127 127 127 25 127 127 39 127 127 127 127 127 127 39 127 127 18 127 127 127 21 127 33 127 127 127 127 29 127 31 127 127 38 127 127 127 127 127 127 127 18 127 127 21 127 0 127 127 127 22 127 28 127 34 127 127 8 127 127 127 39 24 12 127 127 127 14 30 127 127 127 127 29 127 127 11 14
13 127 127 24 127 127 127 127 41 127 127 127 127 40 19 127 127 127 127 127 17 127 127 127 127 127 9 73 127 127 17 127 20 127 11 127 4 127 127 23 6 127 127 127 127 127 14 127 127 10 127 127 127 127 127 12 127 127 127 25 127 127 61 127 127 0 17 127 21 67 127 127 28 127 127 127 1 127 127 127 127 127 127 127 127 127 127 31 127 22 127 127 127 127 48 29
30 127 127 9 127 127 127 127 25 127 127 127 127 127 36 127 28 127 127 127 3 127 127 127 127 127 127 127 127 127 25 127 37 127 27 127 14 127 62 127 12 127 42 127 57 127 127 127 127 8 127 127 127 127 127 15 127 127 127 127 127 127 127 127 127 17 0 127 127 51 127 127 28 127 127 127 18 127 127 127 127 127 127 127 127 127 127 21 127 9 127 127 127 127 127 127
127 127 34 127 127 127 40 127 127 127 127 127 127 127 127 127 127 24 14 127 127 127 127 10 2 37 127 60 127 127 127 31 127 127 127 127 127 12 127 127 127 27 127 34 127 127 127 127 38 127 127 43 127 127 22 127 127 127 127 127 127 127 127 25 127 127 127 0 127 127 127 19 127 127 43 127 127 33 127 19 127 127 15 11 17 127 38 127 17 127 9 29 127 34 127 127
21 127 127 127 127 127 127 127 127 127 36 28 127 24 29 23 34 127 127 127 127 127 39 127 127 127 18 55 127 127 7 127 28 127 14 7 22 127 127 15 127 37 127 127 127 127 15 127 28 25 127 127 127 127 127 17 127 127 127 4 127 127 43 127 22 21 127 127 0 127 7 127 17 127 32 30 20 127 127 127 127 11 127 127 127 29 27 31 127 29 127 36 127 127 32 8
80 127 127 43 56 34 127 28 26 127 127 127 82 127 86 127 38 127 127 43 53 33 127 127 127 127 127 127 31 33 127 127 87 35 127 127 63 127 12 127 62 127 25 93 25 38 127 127 127 57 85 127 127 38 127 58 50 58 28 127 44 37 127 127 127 67 51 127 127 0 127 127 56 33 55 127 127 127 50 127 127 127 127 127 127 127 127 40 127 46 127 127 30 74 127 127
25 127 127 28 127 127 43 127 42 127 127 31 127 30 127 19 27 127 127 127 127 127 41 127 127 127 21 127 127 127 4 127 33 127 17 10 21 127 127 22 127 36 44 127 127 33 19 127 25 23 127 127 127 127 127 13 31 127 127 10 127 127 127 49 28 127 127 127 7 127 0 127 10 127 27 127 21 127 127 127 127 15 127 127 127 32 25 24 127 23 127 36 127 127 38 14
127 127 23 127 38 127 127 127 127 127 127 127 22 127 127 127 127 43 11 46 127 127 127 13 21 55 127 79 127 127 127 29 127 127 127 127 127 14 89 127 127 127 127 15 127 127 127 127 127 127 20 62 127 127 6 127 127 36 127 127 127 127 127 27 127 127 127 19 127 127 127 0 127 127 127 127 127 51 44 127 127 127 127 8 36 127 127 127 3 127 10 127 127 20 127 127
34 127 127 26 127 30 33 45 37 127 127 33 127 38 127 13 18 127 57 43 31 127 41 127 127 127 30 127 32 127 13 45 127 127 27 17 26 55 127 32 29 32 35 127 50 23 29 127 20 26 127 127 35 127 127 17 21 127 34 18 24 127 127 42 34 28 28 127 17 56 10 127 0 127 18 127 28 127 127 127 127 23 43 127 127 34 21 17 127 21 127 33 127 127 127 21
127 127 127 127 127 2 19 13 31 127 127 127 127 127 127 127 18 127 127 16 127 2 127 127 127 127 127 127 2 5 127 127 127 10 127 127 127 127 127 127 127 127 8 127 18 9 127 127 127 127 127 127 7 127 127 127 18 127 5 127 12 127 127 127 127 127 127 127 127 33 127 127 127 0 127 127 127 127 127 127 127 127 127 127 127 127 127 127 127 127 127 127 127 127 127 127
127 127 41 39 127 22 16 36 44 127 127 33 127 127 127 10 22 127 39 28 47 25 127 127 42 127 127 127 25 27 30 27 127 30 44 28 44 37 127 127 127 22 30 127 41 17 127 127 12 43 127 127 23 34 127 35 6 42 28 31 12 127 127 24 127 127 127 43 32 55 27 127 18 127 0 127 46 127 41 36 127 33 28 127 127 127 14 26 48 36 46 25 127 47 127 33
40 20 127 127 127 127 127 127 127 14 6 18 127 9 44 127 127 35 127 127 127 127 26 127 127 35 127 25 127 127 127 127 43 127 127 26 127 127 127 26 127 127 127 127 127 127 36 22 127 127 127 33 127 127 127 127 127 127 127 26 127 127 13 127 8 127 127 127 30 127 127 127 127 127 127 0 127 127 127 127 23 20 127 127 127 17 36 127 127 127 127 33 127 127 4 22
12 127 127 25 127 127 127 127 42 127 127 127 127 39 19 39 37 127 127 127 18 127 127 127 127 127 8 72 127 127 17 127 19 127 10 28 5 127 127 22 7 127 127 127 127 127 13 127 127 11 127 127 127 127 127 12 127 127 127 25 127 127 60 127 127 1 18 127 20 127 21 127 28 127 46 127 0 127 127 127 127 127 127 127 127 127 127 31 127 22 127 127 127 127 48 28
80 25 127 127 127 127 127 127 127 28 42 35 73 127 85 127 127 19 47 127 127 127 25 39 31 8 127 31 127 127 127 127 84 127 127 127 127 45 127 67 127 36 127 65 127 127 127 31 127 127 71 13 127 127 53 127 127 127 127 127 127 127 37 127 127 127 127 33 127 127 127 51 127 127 127 127 127 0 127 23 23 127 39 43 17 34 46 127 50 127 41 33 127 67 45 127
127 127 21 127 6 30 26 23 59 127 127 127 33 127 127 127 127 127 39 14 77 28 127 127 127 127 127 127 127 24 127 23 127 19 127 127 127 127 46 127 127 127 34 44 25 127 127 127 127 127 35 127 23 14 127 127 36 8 32 127 33 14 127 31 127 127 127 127 127 50 127 44 127 127 41 127 127 127 0 127 127 127 127 127 127 127 127 127 42 127 127 127 20 26 127 127
127 33 127 127 127 127 40 127 127 29 127 24 127 127 127 34 127 7 29 127 127 127 14 28 16 23 127 43 127 127 127 38 127 127 127 42 127 26 127 127 127 15 127 127 127 127 127 127 27 127 127 29 127 127 40 127 127 127 127 127 127 127 127 30 39 127 127 19 127 127 127 127 127 127 36 127 127 23 127 0 17 41 17 30 9 24 26 127 127 127 27 13 127 127 127 127
127 17 127 127 127 127 127 127 127 12 25 12 127 30 127 127 127 12 127 127 127 127 5 45 33 17 127 28 127 127 127 127 63 127 127 34 127 127 127 127 127 21 127 127 127 127 127 25 127 127 127 19 127 127 58 127 127 127 127 127 127 127 25 127 24 127 127 127 127 127 127 127 127 127 127 23 127 23 127 17 0 31 32 127 21 12 27 127 127 127 127 16 127 127 27 127
28 127 127 127 127 127 127 127 127 29 26 19 127 15 127 23 41 39 127 127 127 127 30 127 127 127 127 127 127 127 17 127 34 127 22 6 127 127 127 17 127 31 127 127 127 127 22 127 25 127 127 127 127 127 127 27 127 127 127 6 127 127 33 127 12 127 127 127 11 127 15 127 23 127 33 20 127 127 127 41 31 0 127 127 127 19 24 39 127 127 127 29 127 127 23 2
127 127 30 127 127 127 26 127 127 127 127 34 127 127 127 31 49 24 15 38 127 127 28 24 15 40 127 127 127 127 127 21 127 127 127 45 127 13 127 127 127 15 127 127 127 127 127 127 24 127 127 127 40 127 31 127 30 39 127 127 35 127 127 13 127 127 127 15 127 127 127 127 43 127 28 127 127 39 127 17 32 127 0 22 22 127 24 127 23 127 19 19 127 32 127 127
127 127 28 127 127 127 127 127 127 127 127 127 30 127 127 127 127 35 10 127 127 127 127 6 14 47 127 71 127 127 127 30 127 127 127 127 127 11 127 127 127 127 127 23 127 127 127 127 127 127 28 54 127 127 11 127 127 41 127 127 127 127 127 26 127 127 127 11 127 127 127 8 127 127 127 127 127 43 127 30 127 127 22 0 28 127 127 127 7 127 2 127 127 26 127 127
127 34 127 127 127 127 127 127 127 32 127 31 127 127 127 127 127 10 30 127 127 127 19 25 15 19 127 42 127 127 127 127 82 127 127 127 127 28 127 127 127 23 127 51 127 127 127 41 36 127 127 26 127 127 39 127 127 127 127 127 127 127 44 35 127 127 127 17 127 127 127 36 127 127 127 127 127 17 127 9 21 127 22 28 0 31 35 127 34 127 26 22 127 127 127 127
127 22 127 127 127 127 127 127 127 14 21 1 127 20 127 27 127 21 127 127 127 127 11 127 127 28 127 32 127 127 127 127 52 127 127 22 127 127 127 34 127 21 127 127 127 127 127 29 23 127 127 29 127 127 127 127 127 127 127 25 127 127 24 127 14 127 127 127 29 127 32 127 34 127 127 17 127 34 127 24 12 19 127 127 31 0 21 127 127 127 127 16 127 127 21 21
127 127 127 127 127 127 27 127 127 35 127 20 127 36 127 9 33 28 39 127 127 127 23 127 36 43 127 127 127 127 29 33 127 127 41 21 127 36 127 40 127 12 127 127 127 127 42 127 2 127 127 127 127 127 127 37 20 127 127 25 127 127 127 27 30 127 127 38 27 127 25 127 21 127 14 36 127 46 127 26 27 24 24 127 35 21 0 35 127 127 127 13 127 127 127 25
42 127 127 14 127 23 36 36 20 127 127 50 127 127 50 27 7 127 127 127 24 127 127 127 127 127 37 127 23 127 24 127 127 127 35 33 27 127 50 127 28 127 23 127 39 18 38 127 34 23 127 127 127 127 127 20 25 127 24 34 24 127 127 48 127 31 21 127 31 40 24 127 17 127 26 127 31 127 127 127 127 39 127 127 127 127 35 0 127 11 127 127 127 127 127 37
127 127 22 127 37 127 39 127 127 127 127 127 23 127 127 127 127 127 8 44 127 127 127 13 20 127 127 127 127 127 127 26 127 127 127 127 127 11 87 127 127 39 127 17 127 127 127 127 47 127 21 127 127 127 8 127 127 35 127 127 127 127 127 24 127 127 127 17 127 127 127 3 127 127 48 127 127 50 42 127 127 127 23 7 34 127 127 127 0 127 8 127 127 19 127 127
34 127 127 5 127 127 127 127 21 127 127 127 127 127 41 34 18 127 127 127 13 127 127 127 127 127 29 127 127 127 22 127 127 127 29 34 18 127 127 127 18 127 34 127 127 29 32 127 127 13 127 127 127 127 127 13 36 127 127 127 127 127 127 127 127 22 9 127 29 46 23 127 21 127 36 127 22 127 127 127 127 127 127 127 127 127 127 11 127 0 127 127 127 127 127 127
127 127 28 127 127 127 40 127 127 127 127 127 32 127 127 127 127 33 9 48 127 127 127 6 12 46 127 69 127 127 127 29 127 127 127 127 127 10 127 127 127 34 127 25 127 127 127 127 43 127 29 52 127 127 13 127 127 41 127 127 127 127 127 25 127 127 127 9 127 127 127 10 127 127 46 127 127 41 127 27 127 127 19 2 26 127 127 127 8 127 0 127 127 27 127 127
127 33 127 127 127 127 34 127 127 26 127 15 127 35 127 22 127 15 35 127 127 127 12 39 27 30 127 44 127 127 127 36 127 127 127 29 127 32 127 127 127 5 127 127 127 127 127 127 14 127 127 34 127 127 49 127 127 127 127 32 127 127 127 28 29 127 127 29 36 127 36 127 33 127 25 33 127 33 127 13 16 29 19 127 22 16 13 127 127 127 127 0 127 127 127 31
127 127 39 127 26 127 29 5 41 127 127 127 53 127 127 127 35 127 127 16 63 16 127 127 127 127 127 127 18 13 127 35 127 10 127 127 127 127 28 127 127 127 18 63 5 27 127 127 127 127 55 127 16 9 127 127 127 28 17 127 127 7 127 127 127 127 127 127 127 30 127 127 127 127 127 127 127 127 20 127 127 127 127 127 127 127 127 127 127 127 127 127 0 45 127 127
127 127 6 127 20 127 33 127 127 127 127 127 11 127 127 127 127 127 20 32 127 127 127 32 127 127 127 127 127 127 127 20 127 40 127 127 127 22 72 127 127 47 127 19 50 127 127 127 50 127 12 127 40 36 23 127 127 17 127 127 127 38 127 25 127 127 127 34 127 74 127 20 127 127 47 127 127 67 26 127 127 127 32 26 127 127 127 127 19 127 27 127 45 0 127 127
40 22 127 127 127 127 127 127 127 17 5 22 127 8 43 127 127 127 127 127 64 127 30 127 127 127 40 25 127 127 39 127 42 127 37 28 127 127 127 26 54 127 127 127 127 127 35 22 127 127 127 35 127 127 127 127 127 127 127 28 127 127 13 127 11 48 127 127 32 127 38 127 127 127 127 4 48 45 127 127 27 23 127 127 127 21 127 127 127 127 127 127 127 127 0 24
26 127 127 127 127 127 127 127 127 31 28 21 127 16 33 23 40 127 127 127 127 127 32 127 127 127 24 47 127 127 15 127 32 127 20 5 127 127 127 15 127 33 127 127 127 127 19 127 26 127 127 127 127 127 127 25 127 127 127 4 127 127 35 127 14 29 127 127 8 127 14 127 21 127 33 22 28 127 127 127 127 2 127 127 127 21 25 37 127 127 127 31 127 127 24 0
EOF
